# Solution for model iteration_32
# Objective value = 2.4144828868839227e+01
0 0
1 0.001
3 0.001
5 2.9016817976550595e+01
7 2.9016817976550595e+01
9 4.5137161296856476e+01
11 4.8360029960917657e+01
13 38.6783545601698
15 7.7346049659403448e+01
17 1.0414682886883922e+02
c(0,17)_rl 0
c(0,17)_ru 2.4144828868839227e+01
lambda[0] 0
lambda[1] 0
lambda[2] 0
lambda[3] 0
lambda[4] 0
lambda[5] 0
lambda[6] 0
lambda[7] 0
lambda[8] 0
lambda[9] 0
lambda[10] 0
lambda[11] 0
lambda[12] 0
lambda[13] 0
lambda[14] 0
lambda[15] 0
lambda[16] 0
lambda[17] 0
lambda[18] 0
lambda[19] 0
lambda[20] 0
lambda[21] 0
lambda[22] 0
lambda[23] 0
lambda[24] 0
lambda[25] 0
lambda[26] 0
lambda[27] 0
lambda[28] 0
lambda[29] 1.8531217938614283e-01
lambda[30] 0
lambda[31] 8.1468782061385714e-01
phi[0] 2.2314355131420971e-01
